100
1000
250
0 0
-34 15
-34 15
-34 15
-34 15
-34 15
-34 15
-34 15
-34 15
-34 15
-34 15
-34 15
-34 15
-34 15
-34 15
-34 15
-34 15
-34 15
-34 15
-34 15
-34 15
-34 15
-34 15
-34 15
-34 15
-34 15
-6 15
-6 15
-6 15
-6 15
-6 15
-6 15
-6 15
-6 15
-6 15
-6 15
-6 15
-6 15
-6 15
-6 15
-6 15
-6 15
-6 15
-6 15
-6 15
-6 15
-6 15
-6 15
-6 15
-6 15
-6 15
-24 1
-24 1
-24 1
-24 1
-24 1
-24 1
-24 1
-24 1
-24 1
-24 1
-24 1
-24 1
-24 1
-24 1
-24 1
-24 1
-24 1
-24 1
-24 1
-24 1
-24 1
-24 1
-24 1
-24 1
-24 1
38 -13
38 -13
38 -13
38 -13
38 -13
38 -13
38 -13
38 -13
38 -13
38 -13
38 -13
38 -13
38 -13
38 -13
38 -13
38 -13
38 -13
38 -13
38 -13
38 -13
38 -13
38 -13
38 -13
38 -13
38 -13
13 6
13 6
13 6
13 6
13 6
13 6
13 6
13 6
13 6
13 6
13 6
13 6
13 6
13 6
13 6
13 6
13 6
13 6
13 6
13 6
13 6
13 6
13 6
13 6
13 6
17 -11
20 -40
10 -15
-22 -28
-9 -9
-19 40
-6 34
1 -10
20 -1
-11 15
7 -22
33 -5
-1 37
7 -10
-8 -21
25 -23
-35 28
15 -40
26 -9
11 -13
1 36
-8 37
20 37
9 4
38 31
17 -11
20 -40
10 -15
-22 -28
-9 -9
-19 40
-6 34
1 -10
20 -1
-11 15
7 -22
33 -5
-1 37
7 -10
-8 -21
25 -23
-35 28
15 -40
26 -9
11 -13
1 36
-8 37
20 37
9 4
38 31
17 -11
20 -40
10 -15
-22 -28
-9 -9
-19 40
-6 34
1 -10
20 -1
-11 15
7 -22
33 -5
-1 37
7 -10
-8 -21
25 -23
-35 28
15 -40
26 -9
11 -13
1 36
-8 37
20 37
9 4
38 31
17 -11
20 -40
10 -15
-22 -28
-9 -9
-19 40
-6 34
1 -10
20 -1
-11 15
7 -22
33 -5
-1 37
7 -10
-8 -21
25 -23
-35 28
15 -40
26 -9
11 -13
1 36
-8 37
20 37
9 4
38 31
17 -11
20 -40
10 -15
-22 -28
-9 -9
-19 40
-6 34
1 -10
20 -1
-11 15
7 -22
33 -5
-1 37
7 -10
-8 -21
25 -23
-35 28
15 -40
26 -9
11 -13
1 36
-8 37
20 37
9 4
38 31
0 0 
52
60
55
55
57
60
53
54
54
52
56
55
52
56
54
57
59
53
55
52
51
54
55
59
54
56
57
55
57
60
53
57
59
59
52
59
51
60
53
59
54
53
56
56
55
55
56
60
55
56
57
59
60
52
52
51
55
59
53
56
56
56
59
57
51
55
54
56
56
56
59
59
60
55
54
59
57
60
52
51
54
52
56
55
59
57
56
56
60
57
59
56
55
53
54
56
57
59
52
56
56
56
59
59
57
56
60
54
51
55
56
52
55
54
51
59
59
56
54
55
54
51
54
53
54
52
60
55
55
57
60
53
54
54
52
56
55
52
56
54
57
59
53
55
52
51
54
55
59
54
56
57
55
57
60
53
57
59
59
52
59
51
60
53
59
54
53
56
56
55
55
56
60
55
56
57
59
60
52
52
51
55
59
53
56
56
56
59
57
51
55
54
56
56
56
59
59
60
55
54
59
57
60
52
51
54
52
56
55
59
57
56
56
60
57
59
56
55
53
54
56
57
59
52
56
56
56
59
59
57
56
60
54
51
55
56
52
55
54
51
59
59
56
54
55
54
51
54
53
54
